NAME : pr439.opt.tour
COMMENT : Optimum tour for pr439.tsp (107217)
TYPE : TSP
DIMENSION : 439
TOUR_SECTION
13
14
15
16
17
33
34
35
36
37
38
39
42
44
40
41
43
45
46
49
47
48
50
51
53
54
55
56
82
81
80
79
57
58
78
86
87
77
59
60
61
76
75
62
32
31
30
29
28
27
26
63
73
74
64
25
23
24
65
66
22
21
20
18
19
67
68
69
70
71
72
88
89
90
91
102
92
93
94
100
95
96
97
98
99
128
133
132
131
130
129
127
126
124
125
123
101
122
121
119
118
116
120
117
115
103
114
113
104
105
106
107
108
109
110
111
112
146
144
147
148
145
185
190
224
223
222
233
234
235
236
237
238
239
240
221
220
219
218
217
241
242
243
244
245
246
247
248
249
250
210
211
212
213
214
215
216
198
197
196
195
194
193
191
184
192
183
182
181
180
179
178
177
159
158
157
156
155
154
153
152
151
150
143
142
141
140
139
138
137
136
135
134
160
161
162
163
164
165
167
166
169
168
170
171
172
173
174
204
175
176
199
200
201
202
203
205
206
207
208
209
251
253
252
255
254
316
256
257
258
259
260
261
262
263
264
265
266
267
268
269
270
271
272
301
302
303
304
305
306
307
308
309
310
311
312
313
314
315
317
318
319
320
321
322
323
324
325
326
327
328
329
331
330
332
333
334
335
336
337
338
295
296
297
298
299
300
273
274
275
276
277
278
279
294
339
360
370
361
362
363
364
365
366
367
368
369
378
385
386
387
388
401
400
402
404
405
417
418
428
429
431
416
415
419
420
421
414
406
407
413
412
423
422
432
433
430
427
424
426
425
410
411
409
408
403
434
438
437
436
435
439
284
344
343
342
341
373
371
372
383
382
384
394
395
393
397
396
398
399
392
391
381
375
374
380
390
389
379
377
376
345
346
348
347
349
350
351
353
352
354
355
356
358
357
359
293
292
291
290
289
288
340
287
286
285
280
232
231
225
189
188
187
230
281
282
229
283
228
227
226
186
149
85
84
83
52
2
3
1
4
5
6
7
8
9
10
11
12
-1
EOF